%chk=sim000_gas.chk
# rb3lyp/aug-cc-pvdz empiricaldispersion=gd3 int(grid=ultrafine, acc2e=11) scf=(tight,maxcycles=500) iop(1/152=1000) opt=(maxcycles=1000,cartesian) freq=noraman nosymm

G16 gas-phase opt/freq job for sim000

0 1
4      0.77434      0.62480      2.22246
2      0.99050      2.04830      -2.10354
4      -1.60926      1.71136      0.44592
2      -1.90455      2.25935      -0.28109
2      -2.15356      1.98036      1.18592
2      0.98275      1.55750      2.27345
2      -0.08616      0.54811      2.63345
4      0.09070      -0.82500      -2.29055
2      -0.24480      -1.72089      -2.31555
2      1.04169      -0.92579      -2.25454
4      0.30350      -2.36960      0.48845
2      -0.15000      -3.00560      -0.06455
2      0.54680      -2.86280      1.27146
4      1.16790      1.65251      -1.25054
2      2.12270      1.62351      -1.19354
3      0.00000      0.00000      0.00000

