%chk=sim002_gas.chk
# rb3lyp/aug-cc-pvdz empiricaldispersion=gd3 int(grid=ultrafine, acc2e=11) scf=(tight,maxcycles=500) iop(1/152=1000) opt=(maxcycles=1000,cartesian) freq=noraman nosymm

G16 gas-phase opt/freq job for sim002

0 1
4      -0.59770      -0.75553      -2.06075
2      -1.53390      -0.95354      -2.04325
2      -0.30140      -1.07253      -2.91375
4      -1.01584      -2.02829      0.58500
2      -1.94084      -2.22328      0.73401
2      -0.54884      -2.60629      1.18801
4      0.02415      0.83286      2.19300
2      -0.73784      0.45516      2.63101
2      -0.21484      1.74686      2.04100
4      0.56916      2.18471      -0.79100
2      1.27016      2.32872      -1.42700
2      -0.18184      2.65772      -1.15000
3      0.00000      0.00000      0.00000

