%chk=sim005_gas.chk
# rb3lyp/aug-cc-pvdz empiricaldispersion=gd3 int(grid=ultrafine, acc2e=11) scf=(tight,maxcycles=500) iop(1/152=1000) opt=(maxcycles=1000,cartesian) freq=noraman nosymm

G16 gas-phase opt/freq job for sim005

0 1
4      1.56813      1.21646      1.64504
2      2.30923      0.65146      1.86144
4      1.20399      1.38300      -1.57801
2      1.96783      2.01247      1.29324
2      1.97799      1.34300      -2.13900
2      0.58400      1.92700      -2.06301
4      -2.01056      0.91946      0.89200
4      -0.33197      -1.75086      -1.71154
2      -2.10556      1.83446      1.15700
2      -2.73956      0.76646      0.29100
2      0.20114      -2.52984      -1.55355
2      -1.22437      -2.02387      -1.49955
4      -0.17601      -2.20789      1.17514
2      0.54899      -2.44190      1.75444
2      -0.95700      -2.29860      1.72004
3      0.00000      0.00000      0.00000

